CSW05
Position Depot: Center
Horizon for Depot: Small
Position of customers: Cluster
Distribution of the demand: Small
Width of time windows: Wide
Distribution of the service: Small

VEHICLE 
NUMBER 	 CAPACITY 
 10 	 	 41 
 
CUSTOMER
CUST NO. 	 XCOORD.  	 YCOORD. 	 DEMAND 	 READY TIME 	 DUE DATE 	 SERVICE TIME 
 0 	 	 500 	 	 500 	 	 0 	 	 0 	 	 1685 	 	 0 
  1 	 	 614 	 	 703 	 	 9 	 	 1424 	 	 1632 	 	 67 
  2 	 	 316 	 	 978 	 	 5 	 	 931 	 	 1286 	 	 71 
  3 	 	 782 	 	 504 	 	 9 	 	 1475 	 	 1685 	 	 71 
  4 	 	 736 	 	 726 	 	 8 	 	 73 	 	 359 	 	 53 
  5 	 	 516 	 	 449 	 	 10 	 	 1342 	 	 1685 	 	 98 
  6 	 	 839 	 	 661 	 	 9 	 	 781 	 	 1267 	 	 87 
  7 	 	 992 	 	 584 	 	 6 	 	 153 	 	 549 	 	 57 
  8 	 	 863 	 	 592 	 	 8 	 	 751 	 	 1025 	 	 92 
  9 	 	 304 	 	 841 	 	 10 	 	 1151 	 	 1597 	 	 61 
  10 	 	 881 	 	 659 	 	 9 	 	 791 	 	 1052 	 	 96 
  11 	 	 881 	 	 593 	 	 10 	 	 1294 	 	 1508 	 	 59 
  12 	 	 741 	 	 382 	 	 5 	 	 321 	 	 578 	 	 54 
  13 	 	 757 	 	 542 	 	 10 	 	 384 	 	 820 	 	 90 
  14 	 	 878 	 	 691 	 	 9 	 	 964 	 	 1283 	 	 99 
  15 	 	 730 	 	 559 	 	 7 	 	 1310 	 	 1668 	 	 57 
  16 	 	 522 	 	 485 	 	 6 	 	 438 	 	 711 	 	 79 
  17 	 	 859 	 	 600 	 	 6 	 	 64 	 	 532 	 	 60 
  18 	 	 988 	 	 408 	 	 9 	 	 454 	 	 792 	 	 100 
  19 	 	 580 	 	 469 	 	 7 	 	 307 	 	 533 	 	 71 
  20 	 	 654 	 	 658 	 	 6 	 	 956 	 	 1173 	 	 93 
  21 	 	 324 	 	 948 	 	 9 	 	 600 	 	 897 	 	 56 
  22 	 	 709 	 	 643 	 	 8 	 	 715 	 	 954 	 	 87 
  23 	 	 649 	 	 575 	 	 5 	 	 826 	 	 1219 	 	 87 
  24 	 	 773 	 	 792 	 	 9 	 	 455 	 	 708 	 	 73 
  25 	 	 637 	 	 642 	 	 10 	 	 -2 	 	 258 	 	 86 
  26 	 	 974 	 	 430 	 	 8 	 	 491 	 	 915 	 	 98 
  27 	 	 282 	 	 984 	 	 5 	 	 525 	 	 774 	 	 94 
  28 	 	 377 	 	 876 	 	 10 	 	 486 	 	 928 	 	 55 
  29 	 	 598 	 	 449 	 	 8 	 	 1232 	 	 1685 	 	 50 
  30 	 	 973 	 	 524 	 	 9 	 	 1239 	 	 1685 	 	 63 
  31 	 	 998 	 	 617 	 	 9 	 	 310 	 	 562 	 	 94 
  32 	 	 277 	 	 958 	 	 10 	 	 298 	 	 723 	 	 95 
  33 	 	 789 	 	 697 	 	 8 	 	 395 	 	 606 	 	 66 
  34 	 	 789 	 	 646 	 	 6 	 	 1191 	 	 1477 	 	 88 
  35 	 	 549 	 	 534 	 	 10 	 	 1215 	 	 1685 	 	 98 
  36 	 	 572 	 	 785 	 	 9 	 	 357 	 	 708 	 	 74 
  37 	 	 908 	 	 537 	 	 8 	 	 778 	 	 1150 	 	 96 
  38 	 	 190 	 	 853 	 	 10 	 	 643 	 	 867 	 	 62 
  39 	 	 714 	 	 886 	 	 6 	 	 198 	 	 485 	 	 91 
  40 	 	 908 	 	 758 	 	 9 	 	 952 	 	 1400 	 	 97 
  41 	 	 990 	 	 571 	 	 9 	 	 1058 	 	 1343 	 	 51 
  42 	 	 933 	 	 556 	 	 5 	 	 43 	 	 480 	 	 93 
  43 	 	 776 	 	 741 	 	 5 	 	 -41 	 	 404 	 	 52 
  44 	 	 880 	 	 670 	 	 10 	 	 248 	 	 457 	 	 53 
  45 	 	 777 	 	 817 	 	 7 	 	 297 	 	 760 	 	 92 
  46 	 	 838 	 	 794 	 	 9 	 	 1161 	 	 1480 	 	 85 
  47 	 	 241 	 	 943 	 	 7 	 	 1199 	 	 1685 	 	 61 
  48 	 	 797 	 	 717 	 	 10 	 	 1453 	 	 1679 	 	 59 
  49 	 	 281 	 	 995 	 	 10 	 	 248 	 	 705 	 	 90 
  50 	 	 597 	 	 796 	 	 5 	 	 428 	 	 857 	 	 92 
 